(set-info :smt-lib-version 2.6)
(set-logic ABV)
(set-info :source |
Generated by: Matthias Heizmann
Generated on: 2023-03-21
Generator: Ultimate Automizer
Application: Software verification
Generated by the tool Ultimate Automizer [1,2] which implements
an automata theoretic approach [3] to software verification.

This SMT script belongs to a set of SMT scripts that was generated by
applying Ultimate Automizer to benchmarks [4] from the SV-COMP 2023 [5,6].
This script may not contain all SMT commands that Ultimate Automizer
issued. In order to meet the restrictions for SMT-COMP benchmarks 
we dropped the commands for getting values (resp. models), 
unsatisfiable cores, and interpolants.

2023-03-21, Matthias Heizmann (heizmann@informatik.uni-freiburg.de)

[1] https://ultimate.informatik.uni-freiburg.de/automizer/
[2] Matthias Heizmann, Max Barth, Daniel Dietsch, Leonard Fichtner,
     Jochen Hoenicke, Dominik Klumpp, Mehdi Naouar, Tanja Schindler,
     Frank Schüssele, Andreas Podelski: Ultimate Automizer and the
     CommuHash Normal Form (Competition Contribution). TACAS 2023
[3] Matthias Heizmann, Jochen Hoenicke, Andreas Podelski: Software Model
     Checking for People Who Love Automata. CAV 2013
[4] https://github.com/sosy-lab/sv-benchmarks
[5] Dirk Beyer: Competition on Software Verification and
     Witness Validation: SV-COMP 2023.  TACAS 2023
[6] https://sv-comp.sosy-lab.org/2023/
|)
(set-info :license "https://creativecommons.org/licenses/by/4.0/")
(set-info :category "industrial")
(set-info :status unknown)
(declare-fun |c_#valid| () (Array (_ BitVec 64) (_ BitVec 1)))
(declare-fun |c_#memory_$Pointer$.base| () (Array (_ BitVec 64) (Array (_ BitVec 64) (_ BitVec 64))))
(declare-fun |c_#memory_$Pointer$.offset| () (Array (_ BitVec 64) (Array (_ BitVec 64) (_ BitVec 64))))
(declare-fun |c_ULTIMATE.start_main_~a~0#1.base| () (_ BitVec 64))
(declare-fun |c_ULTIMATE.start_main_~a~0#1.offset| () (_ BitVec 64))
(declare-fun |c_ULTIMATE.start_main_~p~0#1.base| () (_ BitVec 64))
(declare-fun |c_ULTIMATE.start_main_~p~0#1.offset| () (_ BitVec 64))
(assert (let ((.cse6 (= (_ bv0 64) |c_ULTIMATE.start_main_~a~0#1.offset|)) (.cse2 (bvadd |c_ULTIMATE.start_main_~p~0#1.offset| (_ bv4 64))) (.cse1 (bvadd (_ bv4 64) |c_ULTIMATE.start_main_~a~0#1.offset|))) (and (forall ((v_arrayElimArr_7 (Array (_ BitVec 64) (_ BitVec 64)))) (let ((.cse0 (select v_arrayElimArr_7 .cse2))) (or (not (= (_ bv0 1) (select |c_#valid| .cse0))) (forall ((v_arrayElimArr_8 (Array (_ BitVec 64) (_ BitVec 64))) (v_ArrVal_410 (Array (_ BitVec 64) (_ BitVec 64)))) (or (= |c_ULTIMATE.start_main_~p~0#1.offset| (select (select (store (store |c_#memory_$Pointer$.offset| |c_ULTIMATE.start_main_~p~0#1.base| v_arrayElimArr_8) .cse0 v_ArrVal_410) |c_ULTIMATE.start_main_~a~0#1.base|) .cse1)) (not (= (_ bv0 64) (select v_arrayElimArr_8 .cse2))))) (= .cse0 |c_ULTIMATE.start_main_~a~0#1.base|) (forall ((v_ArrVal_407 (Array (_ BitVec 64) (_ BitVec 64)))) (= (select (select (store (store |c_#memory_$Pointer$.base| |c_ULTIMATE.start_main_~p~0#1.base| v_arrayElimArr_7) .cse0 v_ArrVal_407) |c_ULTIMATE.start_main_~a~0#1.base|) .cse1) |c_ULTIMATE.start_main_~a~0#1.base|))))) (forall ((v_arrayElimArr_7 (Array (_ BitVec 64) (_ BitVec 64)))) (let ((.cse4 (select v_arrayElimArr_7 .cse2))) (or (forall ((v_ArrVal_407 (Array (_ BitVec 64) (_ BitVec 64)))) (let ((.cse3 (select (select (store (store |c_#memory_$Pointer$.base| |c_ULTIMATE.start_main_~p~0#1.base| v_arrayElimArr_7) .cse4 v_ArrVal_407) |c_ULTIMATE.start_main_~a~0#1.base|) .cse1))) (or (= .cse3 |c_ULTIMATE.start_main_~p~0#1.base|) (= .cse3 |c_ULTIMATE.start_main_~a~0#1.base|)))) (not (= (_ bv0 1) (select |c_#valid| .cse4))) (= .cse4 |c_ULTIMATE.start_main_~a~0#1.base|)))) (forall ((v_arrayElimArr_7 (Array (_ BitVec 64) (_ BitVec 64)))) (let ((.cse5 (select v_arrayElimArr_7 .cse2))) (or (forall ((v_ArrVal_407 (Array (_ BitVec 64) (_ BitVec 64)))) (not (= (select (select (store (store |c_#memory_$Pointer$.base| |c_ULTIMATE.start_main_~p~0#1.base| v_arrayElimArr_7) .cse5 v_ArrVal_407) |c_ULTIMATE.start_main_~a~0#1.base|) .cse1) .cse5))) (forall ((v_arrayElimArr_8 (Array (_ BitVec 64) (_ BitVec 64))) (v_ArrVal_410 (Array (_ BitVec 64) (_ BitVec 64)))) (or (not (= (_ bv0 64) (select (select (store (store |c_#memory_$Pointer$.offset| |c_ULTIMATE.start_main_~p~0#1.base| v_arrayElimArr_8) .cse5 v_ArrVal_410) |c_ULTIMATE.start_main_~a~0#1.base|) .cse1))) (not (= (_ bv0 64) (select v_arrayElimArr_8 .cse2))))) (not (= (_ bv0 1) (select |c_#valid| .cse5))) (= .cse5 |c_ULTIMATE.start_main_~a~0#1.base|)))) (or .cse6 (forall ((v_arrayElimArr_8 (Array (_ BitVec 64) (_ BitVec 64))) (v_arrayElimArr_7 (Array (_ BitVec 64) (_ BitVec 64))) (v_ArrVal_407 (Array (_ BitVec 64) (_ BitVec 64))) (v_ArrVal_410 (Array (_ BitVec 64) (_ BitVec 64)))) (let ((.cse7 (select v_arrayElimArr_7 .cse2))) (or (not (= (_ bv0 64) (select (select (store (store |c_#memory_$Pointer$.offset| |c_ULTIMATE.start_main_~p~0#1.base| v_arrayElimArr_8) .cse7 v_ArrVal_410) |c_ULTIMATE.start_main_~a~0#1.base|) .cse1))) (not (= (select (select (store (store |c_#memory_$Pointer$.base| |c_ULTIMATE.start_main_~p~0#1.base| v_arrayElimArr_7) .cse7 v_ArrVal_407) |c_ULTIMATE.start_main_~a~0#1.base|) .cse1) .cse7)) (not (= (_ bv0 1) (select |c_#valid| .cse7))) (not (= (_ bv0 64) (select v_arrayElimArr_8 .cse2))) (= .cse7 |c_ULTIMATE.start_main_~a~0#1.base|))))) (or (and (forall ((v_arrayElimArr_7 (Array (_ BitVec 64) (_ BitVec 64)))) (let ((.cse8 (select v_arrayElimArr_7 .cse2))) (or (forall ((v_ArrVal_407 (Array (_ BitVec 64) (_ BitVec 64)))) (not (= (select (select (store (store |c_#memory_$Pointer$.base| |c_ULTIMATE.start_main_~p~0#1.base| v_arrayElimArr_7) .cse8 v_ArrVal_407) |c_ULTIMATE.start_main_~a~0#1.base|) .cse1) .cse8))) (forall ((v_arrayElimArr_8 (Array (_ BitVec 64) (_ BitVec 64))) (v_ArrVal_410 (Array (_ BitVec 64) (_ BitVec 64)))) (or (not (= (_ bv0 64) (select (select (store (store |c_#memory_$Pointer$.offset| |c_ULTIMATE.start_main_~p~0#1.base| v_arrayElimArr_8) .cse8 v_ArrVal_410) |c_ULTIMATE.start_main_~a~0#1.base|) .cse1))) (not (= (_ bv0 64) (select v_arrayElimArr_8 .cse2))))) (not (= (_ bv0 1) (select |c_#valid| .cse8)))))) (forall ((v_arrayElimArr_8 (Array (_ BitVec 64) (_ BitVec 64))) (v_arrayElimCell_74 (_ BitVec 64)) (v_ArrVal_410 (Array (_ BitVec 64) (_ BitVec 64)))) (let ((.cse9 (select (select (store (store |c_#memory_$Pointer$.offset| |c_ULTIMATE.start_main_~p~0#1.base| v_arrayElimArr_8) v_arrayElimCell_74 v_ArrVal_410) |c_ULTIMATE.start_main_~a~0#1.base|) .cse1))) (or (= .cse9 |c_ULTIMATE.start_main_~a~0#1.offset|) (= |c_ULTIMATE.start_main_~p~0#1.offset| .cse9) (not (= (select |c_#valid| v_arrayElimCell_74) (_ bv0 1))) (not (= (_ bv0 64) (select v_arrayElimArr_8 .cse2)))))) (forall ((v_arrayElimArr_7 (Array (_ BitVec 64) (_ BitVec 64)))) (let ((.cse10 (select v_arrayElimArr_7 .cse2))) (or (forall ((v_arrayElimArr_8 (Array (_ BitVec 64) (_ BitVec 64))) (v_ArrVal_410 (Array (_ BitVec 64) (_ BitVec 64)))) (or (not (= (_ bv0 64) (select (select (store (store |c_#memory_$Pointer$.offset| |c_ULTIMATE.start_main_~p~0#1.base| v_arrayElimArr_8) .cse10 v_ArrVal_410) |c_ULTIMATE.start_main_~a~0#1.base|) .cse1))) (not (= (_ bv0 64) (select v_arrayElimArr_8 .cse2))))) (not (= (_ bv0 1) (select |c_#valid| .cse10))) (forall ((v_ArrVal_407 (Array (_ BitVec 64) (_ BitVec 64)))) (let ((.cse11 (select (select (store (store |c_#memory_$Pointer$.base| |c_ULTIMATE.start_main_~p~0#1.base| v_arrayElimArr_7) .cse10 v_ArrVal_407) |c_ULTIMATE.start_main_~a~0#1.base|) .cse1))) (or (not (= .cse11 .cse10)) (= .cse11 |c_ULTIMATE.start_main_~a~0#1.base|))))))) (forall ((v_arrayElimArr_7 (Array (_ BitVec 64) (_ BitVec 64)))) (let ((.cse12 (select v_arrayElimArr_7 .cse2))) (or (not (= (_ bv0 1) (select |c_#valid| .cse12))) (forall ((v_arrayElimArr_8 (Array (_ BitVec 64) (_ BitVec 64))) (v_ArrVal_410 (Array (_ BitVec 64) (_ BitVec 64)))) (or (= |c_ULTIMATE.start_main_~p~0#1.offset| (select (select (store (store |c_#memory_$Pointer$.offset| |c_ULTIMATE.start_main_~p~0#1.base| v_arrayElimArr_8) .cse12 v_ArrVal_410) |c_ULTIMATE.start_main_~a~0#1.base|) .cse1)) (not (= (_ bv0 64) (select v_arrayElimArr_8 .cse2))))) (forall ((v_ArrVal_407 (Array (_ BitVec 64) (_ BitVec 64)))) (= (select (select (store (store |c_#memory_$Pointer$.base| |c_ULTIMATE.start_main_~p~0#1.base| v_arrayElimArr_7) .cse12 v_ArrVal_407) |c_ULTIMATE.start_main_~a~0#1.base|) .cse1) |c_ULTIMATE.start_main_~a~0#1.base|))))) (forall ((v_arrayElimArr_7 (Array (_ BitVec 64) (_ BitVec 64)))) (let ((.cse14 (select v_arrayElimArr_7 .cse2))) (or (forall ((v_ArrVal_407 (Array (_ BitVec 64) (_ BitVec 64)))) (let ((.cse13 (select (select (store (store |c_#memory_$Pointer$.base| |c_ULTIMATE.start_main_~p~0#1.base| v_arrayElimArr_7) .cse14 v_ArrVal_407) |c_ULTIMATE.start_main_~a~0#1.base|) .cse1))) (or (= .cse13 |c_ULTIMATE.start_main_~p~0#1.base|) (= .cse13 |c_ULTIMATE.start_main_~a~0#1.base|)))) (not (= (_ bv0 1) (select |c_#valid| .cse14)))))) (forall ((v_arrayElimArr_7 (Array (_ BitVec 64) (_ BitVec 64)))) (let ((.cse15 (select v_arrayElimArr_7 .cse2))) (or (forall ((v_ArrVal_407 (Array (_ BitVec 64) (_ BitVec 64)))) (= (select (select (store (store |c_#memory_$Pointer$.base| |c_ULTIMATE.start_main_~p~0#1.base| v_arrayElimArr_7) .cse15 v_ArrVal_407) |c_ULTIMATE.start_main_~a~0#1.base|) .cse1) |c_ULTIMATE.start_main_~p~0#1.base|)) (not (= (_ bv0 1) (select |c_#valid| .cse15))) (forall ((v_arrayElimArr_8 (Array (_ BitVec 64) (_ BitVec 64))) (v_ArrVal_410 (Array (_ BitVec 64) (_ BitVec 64)))) (or (= (select (select (store (store |c_#memory_$Pointer$.offset| |c_ULTIMATE.start_main_~p~0#1.base| v_arrayElimArr_8) .cse15 v_ArrVal_410) |c_ULTIMATE.start_main_~a~0#1.base|) .cse1) |c_ULTIMATE.start_main_~a~0#1.offset|) (not (= (_ bv0 64) (select v_arrayElimArr_8 .cse2))))))))) .cse6) (forall ((v_arrayElimArr_7 (Array (_ BitVec 64) (_ BitVec 64)))) (let ((.cse16 (select v_arrayElimArr_7 .cse2))) (or (forall ((v_ArrVal_407 (Array (_ BitVec 64) (_ BitVec 64)))) (= (select (select (store (store |c_#memory_$Pointer$.base| |c_ULTIMATE.start_main_~p~0#1.base| v_arrayElimArr_7) .cse16 v_ArrVal_407) |c_ULTIMATE.start_main_~a~0#1.base|) .cse1) |c_ULTIMATE.start_main_~p~0#1.base|)) (not (= (_ bv0 1) (select |c_#valid| .cse16))) (= .cse16 |c_ULTIMATE.start_main_~a~0#1.base|) (forall ((v_arrayElimArr_8 (Array (_ BitVec 64) (_ BitVec 64))) (v_ArrVal_410 (Array (_ BitVec 64) (_ BitVec 64)))) (or (= (select (select (store (store |c_#memory_$Pointer$.offset| |c_ULTIMATE.start_main_~p~0#1.base| v_arrayElimArr_8) .cse16 v_ArrVal_410) |c_ULTIMATE.start_main_~a~0#1.base|) .cse1) |c_ULTIMATE.start_main_~a~0#1.offset|) (not (= (_ bv0 64) (select v_arrayElimArr_8 .cse2)))))))) (forall ((v_arrayElimArr_8 (Array (_ BitVec 64) (_ BitVec 64))) (v_arrayElimCell_73 (_ BitVec 64)) (v_ArrVal_410 (Array (_ BitVec 64) (_ BitVec 64)))) (let ((.cse17 (select (select (store (store |c_#memory_$Pointer$.offset| |c_ULTIMATE.start_main_~p~0#1.base| v_arrayElimArr_8) v_arrayElimCell_73 v_ArrVal_410) |c_ULTIMATE.start_main_~a~0#1.base|) .cse1))) (or (not (= (_ bv0 1) (select |c_#valid| v_arrayElimCell_73))) (= |c_ULTIMATE.start_main_~a~0#1.base| v_arrayElimCell_73) (= .cse17 |c_ULTIMATE.start_main_~a~0#1.offset|) (= |c_ULTIMATE.start_main_~p~0#1.offset| .cse17) (not (= (_ bv0 64) (select v_arrayElimArr_8 .cse2)))))))))
(check-sat)
(exit)
